20 64 
1 5 1
1 6 1
1 8 1
1 10 1
1 11 1
1 13 1
1 18 1
1 19 1
1 20 1
2 5 1
2 6 1
2 7 1
2 10 1
2 12 1
2 13 1
2 14 1
2 15 1
2 16 1
2 20 1
3 5 1
3 7 1
3 9 1
3 13 1
3 17 1
4 5 1
4 6 1
4 8 1
4 10 1
4 11 1
4 12 1
4 18 1
5 6 1
5 7 1
5 8 1
5 14 1
5 15 1
5 18 1
6 7 1
6 9 1
6 11 1
6 12 1
6 14 1
6 16 1
7 8 1
7 9 1
7 10 1
7 12 1
7 15 1
7 19 1
8 9 1
9 17 1
9 20 1
10 11 1
10 14 1
10 19 1
11 15 1
11 16 1
11 17 1
12 13 1
12 16 1
12 17 1
12 18 1
15 20 1
17 19 1
